This is Ipopt version 3.12.13, running with linear solver ma57.

Number of nonzeros in equality constraint Jacobian...:        0
Number of nonzeros in inequality constraint Jacobian.:    68544
Number of nonzeros in Lagrangian Hessian.............:       21

Total number of variables............................:        6
                     variables with only lower bounds:        0
                variables with lower and upper bounds:        6
                     variables with only upper bounds:        0
Total number of equality constraints.................:        0
Total number of inequality constraints...............:    11424
        inequality constraints with only lower bounds:        0
   inequality constraints with lower and upper bounds:        0
        inequality constraints with only upper bounds:    11424

iter    objective    inf_pr   inf_du lg(mu)  ||d||  lg(rg) alpha_du alpha_pr  ls
   0  1.0106595e-01 1.51e-02 5.35e+00   0.0 0.00e+00    -  0.00e+00 0.00e+00   0
   1  1.0270556e-01 8.01e-03 2.55e+00  -5.8 4.81e-02    -  4.80e-01 6.76e-01h  1
   2  1.1011078e-01 3.96e-03 1.74e+00  -2.2 6.82e-01    -  3.44e-01 3.23e-01h  1
   3  1.1041644e-01 1.38e-03 1.03e+02  -0.7 7.33e-01    -  9.91e-01 5.96e-02h  1
   4  1.0740343e-01 1.14e-03 3.45e+01  -1.2 6.91e-02    -  1.00e+00 7.72e-01h  1
   5  1.0722392e-01 1.09e-03 4.41e+02  -2.3 4.44e-02    -  1.00e+00 7.73e-02h  1
   6  1.0624505e-01 6.80e-04 2.67e+03  -2.6 5.39e-02    -  1.00e+00 3.74e-01h  1
   7  1.0621612e-01 6.55e-04 3.05e+04  -2.8 3.36e-02    -  1.00e+00 3.72e-02h  1
   8  1.0620700e-01 6.49e-04 1.74e+05  -0.7 1.46e+00    -  1.38e-01 9.04e-03f  4
   9  1.0615387e-01 6.07e-04 3.23e+06  -1.3 4.08e-02    -  1.00e+00 6.56e-02h  1
iter    objective    inf_pr   inf_du lg(mu)  ||d||  lg(rg) alpha_du alpha_pr  ls
  10  1.0615062e-01 6.07e-04 1.83e+07   0.7 1.05e-01    -  1.55e-02 1.21e-03h  1
  11  1.0614483e-01 6.06e-04 1.46e+10   1.1 2.06e-01    -  1.00e+00 1.15e-03h  1
Reallocating memory for MA57: lfact (382534)
  12  1.0614361e-01 6.06e-04 6.23e+13   3.0 1.97e-01    -  1.00e+00 2.33e-04h  1
Reallocating memory for MA57: lfact (661091)
  13  1.0523961e-01 7.11e-03 6.18e+13   3.2 4.15e+00    -  8.83e-03 8.83e-03s 16
  14  1.0547236e-01 5.63e-03 5.77e+13  -3.0 2.48e-02    -  6.60e-02 1.00e+00h  1
  15  1.0622882e-01 4.85e-04 5.67e+11   2.8 2.87e-02    -  9.90e-01 1.00e+00f  1
  16  1.0524205e-01 7.09e-03 1.98e+13   2.7 1.72e-01    -  3.48e-01 2.26e-01f  1
